db/data/11298288881245043292220625493229712778.z3.out
-------------------
2500.082940878
